; benchmark generated from python API
(set-info :status unknown)
(declare-datatypes ((RealState 0)) (((RMk1 (rval1 Real)) (RMk2 (rval2 Real)))))
 (assert
 (forall ((|v11:0| Real) )(forall ((|v10:1| Real) )(forall ((|v9:2| Real) )(forall ((|v8:3| Real) )(exists ((|v7:4_st| RealState) (val!4448 Real) )(exists ((|v6:5_st| RealState) (val!4449 Real) )(exists ((|v5:6_st| RealState) (val!4450 Real) )(exists ((|v4:7_st| RealState) (val!4451 Real) )(forall ((|v3:8| Real) )(forall ((|v2:9| Real) )(forall ((|v1:10| Real) )(forall ((|v0:11| Real) )(let ((?x1477 (- 5.0)))
 (let ((?x1837 (rval2 |v6:5_st|)))
 (let ((?x2971 (* 7.0 ?x1837)))
 (let ((?x139 (+ (+ (+ (* 0.0 (rval2 |v4:7_st|)) (* 17.0 |v9:2|)) (* (- 7.0) |v1:10|)) ?x2971)))
 (let ((?x907 (* 8.0 |v11:0|)))
 (let ((?x2518 (+ (+ (+ (* (- 9.0) |v0:11|) (* (- 4.0) (rval2 |v5:6_st|))) ?x907) (* (- 7.0) (rval2 |v5:6_st|)))))
 (let ((?x1544 (* 19.0 |v3:8|)))
 (let ((?x2776 (+ (+ (* (- 19.0) (rval2 |v5:6_st|)) (* (- 9.0) |v9:2|)) (* (- 3.0) |v11:0|))))
 (let ((?x663 (+ (+ (+ (* (- 16.0) |v0:11|) (* (- 19.0) |v10:1|)) (* 12.0 |v2:9|)) (* (- 20.0) |v8:3|))))
 (let (($x1155 (and (and (<= ?x663 3.0) (<= (+ ?x2776 ?x1544) 4.0)) (and (<= ?x2518 10.0) (<= ?x139 ?x1477)))))
 (let ((?x1774 (- 11.0)))
 (let ((?x330 (+ (+ (* (- 1.0) (rval2 |v7:4_st|)) (* 19.0 |v0:11|)) (* (- 16.0) |v10:1|))))
 (let ((?x988 (- 17.0)))
 (let ((?x617 (* 4.0 ?x1837)))
 (let ((?x1468 (+ (+ (+ (* (- 19.0) (rval2 |v7:4_st|)) (* 5.0 |v3:8|)) (* 19.0 |v2:9|)) ?x617)))
 (let ((?x1415 (- 15.0)))
 (let ((?x537 (* ?x1415 ?x1837)))
 (let ((?x1534 (+ (+ (+ (* (- 6.0) (rval2 |v4:7_st|)) (* (- 2.0) |v2:9|)) ?x537) (* 12.0 |v10:1|))))
 (let ((?x2096 (- 12.0)))
 (let ((?x468 (rval2 |v4:7_st|)))
 (let ((?x915 (* 5.0 ?x468)))
 (let (($x2447 (<= (+ (+ (+ (* 5.0 |v10:1|) (* 20.0 |v1:10|)) (* ?x1477 |v3:8|)) ?x915) ?x2096)))
 (let (($x1920 (and (and $x2447 (<= ?x1534 1.0)) (or (<= ?x1468 ?x988) (<= (+ ?x330 (* ?x2096 |v9:2|)) ?x1774)))))
 (let ((?x977 (- 6.0)))
 (let ((?x234 (* ?x977 |v2:9|)))
 (let ((?x1712 (+ (+ (+ (* 12.0 |v1:10|) (* (- 7.0) |v2:9|)) (* (- 14.0) |v11:0|)) ?x234)))
 (let ((?x2648 (- 8.0)))
 (let ((?x697 (* ?x1774 |v0:11|)))
 (let (($x656 (<= (+ (+ (+ (* (- 3.0) |v8:3|) (* (- 7.0) |v1:10|)) ?x1837) ?x697) ?x2648)))
 (let ((?x1999 (* 7.0 |v3:8|)))
 (let ((?x2521 (+ (+ (+ (* 18.0 (rval2 |v5:6_st|)) (* 3.0 |v10:1|)) (* (- 9.0) |v3:8|)) ?x1999)))
 (let ((?x2799 (* 8.0 ?x1837)))
 (let ((?x311 (+ (+ (+ (* 5.0 (rval2 |v5:6_st|)) (* 8.0 |v0:11|)) (* 17.0 ?x468)) ?x2799)))
 (let (($x29 (and (or (<= ?x311 18.0) (<= ?x2521 11.0)) (or $x656 (<= ?x1712 0.0)))))
 (let ((?x1062 (+ (+ (+ (* 16.0 |v0:11|) (* (- 18.0) |v0:11|)) (* 0.0 ?x1837)) (* ?x988 |v8:3|))))
 (let ((?x2955 (rval2 |v5:6_st|)))
 (let ((?x2186 (* 10.0 ?x2955)))
 (let ((?x2937 (+ (+ (+ (* 12.0 |v3:8|) (* ?x1415 |v9:2|)) (* (- 9.0) (rval2 |v7:4_st|))) ?x2186)))
 (let ((?x1696 (* 17.0 |v9:2|)))
 (let ((?x3092 (+ (+ (+ (* 7.0 |v0:11|) (* 16.0 |v0:11|)) (* 8.0 (rval2 |v7:4_st|))) ?x1696)))
 (let ((?x496 (- 19.0)))
 (let ((?x530 (+ (+ (+ (* ?x1774 |v8:3|) (* 20.0 ?x2955)) (* ?x988 |v0:11|)) (* ?x977 |v11:0|))))
 (let (($x1462 (or (and (<= ?x530 ?x496) (<= ?x3092 19.0)) (and (<= ?x2937 6.0) (<= ?x1062 ?x1477)))))
 (let ((?x373 (* 11.0 |v3:8|)))
 (let (($x1931 (<= (+ (+ (+ (* 20.0 ?x468) (* ?x2096 |v11:0|)) (* 14.0 |v2:9|)) ?x373) ?x496)))
 (let ((?x760 (rval2 |v7:4_st|)))
 (let ((?x548 (* 15.0 ?x760)))
 (let (($x137 (<= (+ (+ (+ (* 13.0 ?x2955) (* (- 7.0) |v1:10|)) ?x617) ?x548) 2.0)))
 (let ((?x1647 (+ (+ (+ (* (- 7.0) |v8:3|) (* ?x977 |v1:10|)) (* 17.0 ?x760)) (* (- 18.0) ?x2955))))
 (let ((?x1192 (* 17.0 |v8:3|)))
 (let ((?x1275 (+ (+ (+ (* (- 7.0) |v11:0|) (* (- 7.0) ?x1837)) (* 10.0 |v11:0|)) ?x1192)))
 (let ((?x1709 (- 16.0)))
 (let ((?x978 (* ?x1709 |v3:8|)))
 (let ((?x2755 (+ (+ (+ (* 19.0 |v8:3|) (* (- 2.0) |v10:1|)) (* 0.0 |v9:2|)) ?x978)))
 (let ((?x2879 (* ?x2096 |v11:0|)))
 (let (($x1137 (<= (+ (+ (+ (* (- 7.0) ?x760) (* ?x1415 |v2:9|)) (* 2.0 |v3:8|)) ?x2879) 8.0)))
 (let ((?x1633 (- 7.0)))
 (let ((?x616 (* ?x1633 |v3:8|)))
 (let (($x2737 (<= (+ (+ (+ (* 16.0 ?x468) ?x548) (* (- 4.0) |v8:3|)) ?x616) 6.0)))
 (let ((?x356 (* ?x496 |v10:1|)))
 (let (($x2341 (<= (+ (+ (+ (* ?x1709 |v2:9|) (* 12.0 |v2:9|)) (* 14.0 ?x1837)) ?x356) 16.0)))
 (let (($x2114 (and (and (or $x2341 $x2737) (or $x1137 (<= ?x2755 13.0))) (and (and (<= ?x1275 ?x1774) (<= ?x1647 1.0)) (or $x137 $x1931)))))
 (let ((?x1134 (* ?x1633 |v2:9|)))
 (let ((?x1972 (+ (+ (+ (* 13.0 |v9:2|) (* 15.0 |v9:2|)) (* (- 1.0) ?x468)) ?x1134)))
 (let ((?x2591 (+ (+ (+ (* 5.0 |v2:9|) (* (- 14.0) ?x468)) (* ?x2648 |v11:0|)) (* (- 9.0) |v8:3|))))
 (let ((?x71 (- 9.0)))
 (let (($x205 (<= (+ (+ (+ (* (- 10.0) ?x1837) ?x373) (* ?x1774 ?x760)) (* ?x977 |v8:3|)) ?x71)))
 (let ((?x573 (* ?x2096 |v2:9|)))
 (let (($x613 (<= (+ (+ (+ (* ?x1477 |v2:9|) (* 4.0 |v1:10|)) (* 12.0 ?x468)) ?x573) 10.0)))
 (let ((?x2028 (+ (+ (+ (* 20.0 |v2:9|) (* (- 13.0) ?x468)) ?x978) (* (- 10.0) ?x760))))
 (let (($x2865 (or (<= ?x2028 2.0) (<= (+ (+ (+ (* ?x1633 |v9:2|) ?x2186) (* 18.0 |v2:9|)) ?x2799) ?x71))))
 (let ((?x925 (+ (+ (+ (* (- 20.0) |v3:8|) (* 2.0 |v3:8|)) (* (- 4.0) ?x468)) (* 17.0 ?x2955))))
 (let ((?x1969 (* 18.0 |v9:2|)))
 (let (($x3100 (<= (+ (+ (+ (* 8.0 ?x468) (* 20.0 |v11:0|)) (* 9.0 ?x2955)) ?x1969) 5.0)))
 (let (($x534 (and (or (and $x3100 (<= ?x925 2.0)) $x2865) (and (or $x613 $x205) (and (<= ?x2591 ?x977) (<= ?x1972 15.0))))))
 (let ((?x2192 (- 10.0)))
 (let ((?x1086 (+ (+ (+ (* 0.0 ?x2955) (* ?x988 |v10:1|)) (* (- 13.0) |v10:1|)) (* (- 20.0) ?x1837))))
 (let ((?x917 (* ?x1709 |v2:9|)))
 (let (($x1913 (<= (+ (+ (+ (* 20.0 ?x2955) (* ?x71 |v10:1|)) (* 16.0 ?x468)) ?x917) 20.0)))
 (let ((?x830 (+ (+ (+ (* 10.0 ?x760) (* ?x1774 |v10:1|)) (* ?x496 ?x760)) (* 13.0 ?x760))))
 (let (($x2389 (<= (+ (+ (+ |v1:10| (* ?x496 |v11:0|)) (* (- 4.0) |v11:0|)) (* 18.0 ?x468)) 18.0)))
 (let ((?x810 (* 14.0 |v10:1|)))
 (let (($x1542 (<= (+ (+ (+ (* 18.0 ?x2955) (* ?x1633 |v11:0|)) (* 16.0 ?x468)) ?x810) 5.0)))
 (let ((?x3023 (* 16.0 |v2:9|)))
 (let (($x1641 (<= (+ (+ (+ (* (- 1.0) |v10:1|) ?x537) (* 3.0 |v8:3|)) ?x3023) 3.0)))
 (let ((?x992 (* ?x2096 |v0:11|)))
 (let (($x1017 (<= (+ (+ (+ (* 15.0 |v9:2|) (* 16.0 |v8:3|)) (* 2.0 |v9:2|)) ?x992) 20.0)))
 (let ((?x528 (* ?x2648 |v0:11|)))
 (let (($x1337 (<= (+ (+ (+ (* ?x2192 |v9:2|) (* 12.0 |v2:9|)) (* (- 1.0) ?x468)) ?x528) ?x2096)))
 (let ((?x3228 (* ?x2648 |v1:10|)))
 (let (($x2136 (<= (+ (+ (+ (* ?x1477 |v10:1|) (* 6.0 |v3:8|)) (* 5.0 |v3:8|)) ?x3228) 1.0)))
 (let (($x1805 (or (and (and $x2136 $x1337) (or $x1017 $x1641)) (and (or $x1542 $x2389) (<= ?x830 10.0)))))
 (let (($x669 (or (and (and $x1805 $x1913) (<= ?x1086 ?x2192)) (or (and $x534 $x2114) (or (or $x1462 $x29) (and $x1920 $x1155))))))
 (let (($x3027 (not (= |v4:7_st| (RMk1 val!4451)))))
 (let (($x820 (not (= |v5:6_st| (RMk1 val!4450)))))
 (let (($x1286 (not (= |v6:5_st| (RMk1 val!4449)))))
 (let (($x2483 (not (= |v7:4_st| (RMk1 val!4448)))))
 (and $x2483 $x1286 $x820 $x3027 $x669)))))))))))))))))))))))))))))))))))))))))))))))))))))))))))))))))))))))))))))))))))))))))))))))))))
 )
 )
 )
 )
 )
 )
 )
 )
 )
 )
 )
 )
(check-sat)
